Route #1: 1 15 18 19 45 36 37 33 8 1
Route #2: 1 23 7 2 6 32 44 24 1
Route #3: 1 41 35 10 30 22 31 14 25 5 43 12 27 1
Route #4: 1 13 39 20 26 38 4 29 1
Route #5: 1 42 17 48 11 34 1
Route #6: 1 16 9 40 21 28 46 1
Route #7: 1 3 47 1
cost 1360
